<?xml version = "1.0" encoding="UTF-8" standalone="yes"?>
<CPLEXSolution version="1.2">
 <header
   problemName="ilog.cplex"
   solutionName="incumbent"
   solutionIndex="-1"
   objectiveValue="126"
   solutionTypeValue="3"
   solutionTypeString="primal"
   solutionStatusValue="101"
   solutionStatusString="integer optimal solution"
   solutionMethodString="mip"
   primalFeasible="1"
   dualFeasible="1"
   MIPNodes="7380"
   MIPIterations="70413"
   writeLevel="3"/>
 <quality
   epInt="1.0000000000000001e-05"
   epRHS="9.9999999999999995e-07"
   maxIntInfeas="0"
   maxPrimalInfeas="0"
   maxX="11"
   maxSlack="100"/>
 <variables>
  <variable name="x_0_11_0" index="58" value="1"/>
  <variable name="x_10_0_0" index="68" value="1"/>
  <variable name="x_0_11_1" index="80" value="1"/>
  <variable name="x_10_0_1" index="90" value="1"/>
  <variable name="x_0_11_3" index="124" value="1"/>
  <variable name="x_10_0_3" index="134" value="1"/>
  <variable name="x_2_7_0" index="220" value="1"/>
  <variable name="x_11_2_0" index="233" value="1"/>
  <variable name="x_2_7_1" index="238" value="1"/>
  <variable name="x_11_2_1" index="251" value="1"/>
  <variable name="x_2_7_3" index="274" value="1"/>
  <variable name="x_11_2_3" index="287" value="1"/>
  <variable name="x_7_10_0" index="498" value="1"/>
  <variable name="x_7_10_1" index="506" value="1"/>
  <variable name="x_7_10_3" index="522" value="1"/>
  <variable name="y_0_1" index="578" value="1"/>
  <variable name="y_1_0" index="583" value="1"/>
  <variable name="y_2_3" index="584" value="1"/>
  <variable name="y_3_1" index="590" value="1"/>
  <variable name="y_4_1" index="594" value="1"/>
  <variable name="y_5_1" index="598" value="1"/>
  <variable name="y_6_0" index="603" value="1"/>
  <variable name="y_7_3" index="604" value="1"/>
  <variable name="y_8_3" index="608" value="1"/>
  <variable name="y_9_3" index="612" value="1"/>
  <variable name="y_10_1" index="618" value="1"/>
  <variable name="u_1_0" index="620" value="1"/>
  <variable name="u_2_0" index="621" value="2"/>
  <variable name="u_1_1" index="622" value="1"/>
  <variable name="u_2_1" index="623" value="2"/>
  <variable name="u_1_2" index="624" value="1"/>
  <variable name="u_2_2" index="625" value="1"/>
  <variable name="u_1_3" index="626" value="1"/>
  <variable name="u_2_3" index="627" value="2"/>
  <variable name="u_3_0" index="628" value="1"/>
  <variable name="u_3_1" index="629" value="1"/>
  <variable name="u_3_2" index="630" value="1"/>
  <variable name="u_3_3" index="631" value="1"/>
  <variable name="u_4_0" index="632" value="1"/>
  <variable name="u_4_1" index="633" value="1"/>
  <variable name="u_4_2" index="634" value="1"/>
  <variable name="u_4_3" index="635" value="1"/>
  <variable name="u_5_0" index="636" value="1"/>
  <variable name="u_5_1" index="637" value="1"/>
  <variable name="u_5_2" index="638" value="1"/>
  <variable name="u_5_3" index="639" value="1"/>
  <variable name="u_6_0" index="640" value="1"/>
  <variable name="u_6_1" index="641" value="1"/>
  <variable name="u_6_2" index="642" value="1"/>
  <variable name="u_6_3" index="643" value="1"/>
  <variable name="u_7_0" index="644" value="10"/>
  <variable name="u_7_1" index="645" value="10"/>
  <variable name="u_7_2" index="646" value="1"/>
  <variable name="u_7_3" index="647" value="10"/>
  <variable name="u_8_0" index="648" value="1"/>
  <variable name="u_8_1" index="649" value="1"/>
  <variable name="u_8_2" index="650" value="1"/>
  <variable name="u_8_3" index="651" value="1"/>
  <variable name="u_9_0" index="652" value="1"/>
  <variable name="u_9_1" index="653" value="1"/>
  <variable name="u_9_2" index="654" value="1"/>
  <variable name="u_9_3" index="655" value="1"/>
  <variable name="u_10_0" index="656" value="11"/>
  <variable name="u_10_1" index="657" value="11"/>
  <variable name="u_10_2" index="658" value="1"/>
  <variable name="u_10_3" index="659" value="11"/>
  <variable name="u_11_0" index="660" value="1"/>
  <variable name="u_11_1" index="661" value="1"/>
  <variable name="u_11_2" index="662" value="1"/>
  <variable name="u_11_3" index="663" value="1"/>
 </variables>
 <objectiveValues>
  <objective index="0" name="" value="126"/>
 </objectiveValues>
</CPLEXSolution>
